Max: $275 S1 + $275 s2 +$275 s3 + $330 m1 + $330 m2 + $330 m3 + $385 l1 + $385 l2 + $385 l3;

Plant 1: s1 + m1 + l1 <= 750;
Plant 2: s2 + m2 + l2 <= 900;
Plant 3: s3 + m3 + l3 <= 450;

Plant 1 : 12 s1 +15 m1 + 20 l1 <= 13,000;
plant 2 : 12 s2 +15 m2 + 20 l2 <= 12,000;
Plant 3 : 12 s3 +15 m3 + 20 l3 <= 5,000;

S1 + s2 + s3 <= 750
m1 + m2 + m3 <= 1200
l1 + l2 + l3 <= 900